Optimal - objective value 4132.00000000
      9 x_0_10                  1                     100
     29 x_1_11                  1                       0
     56 x_2_19                  1                     100
     63 x_3_7                   1                       0
     92 x_4_17                  1                       0
    112 x_5_18                  1                       0
    122 x_6_9                   1                     142
    140 x_7_8                   1                     311
    152 x_8_0                   1                     136
    172 x_9_1                   1                       0
    202 x_10_13                 1                       0
    214 x_11_5                  1                       0
    243 x_12_16                 1                       0
    251 x_13_4                  1                       0
    268 x_14_2                  1                       0
    297 x_15_12                 1                      83
    318 x_16_14                 1                     375
    338 x_17_15                 1                       0
    345 x_18_3                  1                       0
    367 x_19_6                  1                       0
    380 u_1                    13                       0
    381 u_2       8.99999999999999                       0
    382 u_3                    17                       0
    383 u_4                     3                       0
    384 u_5                    15                       0
    385 u_6                    11                       0
    386 u_7                    18                       0
    387 u_8                    19                       0
    388 u_9                    12                       0
    389 u_10                    1                       0
    390 u_11                   14                       0
    391 u_12      6.00000000000001                       0
    392 u_13                    2                       0
    393 u_14      8.00000000000001                       0
    394 u_15      5.00000000000001                       0
    395 u_16      7.00000000000001                       0
    396 u_17                    4                       0
    397 u_18                   16                       0
    398 u_19      9.99999999999999                       0
